CapLotSizing_PM/src/Instancias/NCHSLT/25i18p2m/NBB04.dat
25 18 2
 1
      4943
      4943
    2
     3
     2
     4
     2
     2
     4
     2
     3
     3
     3
     3
     3
     3
     2
     2
     4
     3
     3
     2
     3
     3
     2
     4
     2
   2.4  14.1   788    20 
  1.8  42.0   673    19 
  2.4  16.7   665    25 
  4.5  26.3   759    24 
  1.9  29.7   894    16 
  1.4  18.9   599    17 
  3.0  44.2   932    17 
  2.0  29.3   328    24 
  2.5  44.0    69    16 
  1.7  49.2   721    23 
  1.7  45.1   701    17 
  4.5  24.9   732    18 
  1.8  33.5   358    25 
  3.0  47.7   378    19 
  3.4  35.6   214    25 
  1.5  47.6   734    21 
  1.2  18.0    78    19 
  2.1  32.3   521    24 
  1.7  31.2   623    20 
  4.3  21.2   291    18 
  4.9  35.8   488    24 
  2.4  12.2   172    19 
  4.7  11.0   648    17 
  1.8  46.1   412    22 
  1.8  36.7   292    20 
  2.3  48.7   276    17 
  4.4  31.4   231    15 
  1.3  18.0   227    23 
  4.3  27.4   538    23 
  4.2  26.5   640    15 
  3.1  12.8   661    19 
  4.1  27.4   494    22 
  2.8  31.6   857    18 
  3.0  43.2   223    24 
  1.2  37.2   510    22 
  4.4  39.4   166    20 
  3.6  42.7   179    20 
  4.6  47.9   702    23 
  4.6  11.2   846    21 
  4.5  33.5   878    22 
  3.3  45.5   889    16 
  2.6  18.7   845    18 
  2.3  39.0   669    18 
  2.3  48.0   537    15 
  1.6  26.9   562    17 
  3.4  34.4   945    15 
  3.4  38.8   323    20 
  2.3  19.0   756    19 
  5.0  43.4    68    20 
  2.8  29.0    93    17 
  150    98   127   155    49    42   146   105   159   169    16   137    68    35    19 
   23    60    28    64   119     1    93   119    95   165    41   117    24    57   127 
   95   106   102   174   150   110    71    76    49    36    36    83    11    99   158 
  112    48   139   132    70   117     2    52   151    80     9   101   173   138     7 
   71   114    67    35   105    17   149   129    42    42    75    14    98    55   115 
  103    37   144    22   147   178    90   108   128    99   159    93   120    19   103 
   28    94   154   171    53   112   111    71    85   107   132    59   138    39    52 
  144   150    86   116    72    89   146   159    32   178   137   143   103   105    38 
   20   128    83    47    88    83   102    85    38    17    84    59   116    73   101 
  103   118    31    21    81    31    11    62   122   101   165   107    93    36    27 
   23    83   164   100     4    38    71    35   141     5   146    84    23    98   176 
  178    46   116   110    87    32    31    55   150    48    47   179    61    46    61 
   38   137   157    70   158    51    51   144   116   162    44    21   170    27   101 
  110   163   144   130    61   158    99   101   124     4    77   114   161   141   155 
   53   168   120   117   129    57    18    26    78     0   143   127   132   136    33 
  152    46    92   147   105   148   111   150   169    85    65   113    79     3    32 
  135    96    25    10   159   179   133   102    26   143    74     4    63   107    62 
  121   101    72   176   120    76   176    72   123    83   113    67    39   170    75 
   67     5   101   176   141    32    41   119    94    41 
   84    60    15    15   117    34   134   101   104   177 
  171    80   135    63   118    49   116   146    22   134 
   79    10    70    35    33   156    13    81    63    44 
  108   105   147   161   132    97    70   137   110    50 
   58    78    60    56   129    27    17    55    87   156 
  149   164   124   150   165   134   177     1   109    43 
  114   116    69    12    55   130     8   131    61    81 
   19    45   118    31   120   151   173    71   174    41 
  145    55   128    41   100   150    73    21   176    65 
  128   171     3   172   115    19   161   157   148   133 
   50    39    84   132    45   127   135   109   165   150 
  117    87   154   122   175   171    27    11    41   143 
   36    57   147   117    55    79   178   150   165    45 
  100   141    23    68   159    26   136   135   137   165 
   14   166   154    63   151    18    96    25   172    99 
  161   128    42   113    51   178   135   111    54   141 
   21    90    22    42    25   133    12   154     1   179 
